(declare-const x0c0 Int)
(assert (>= x0c0 0))
(assert (<= x0c0 1))
(declare-const x0c1 Int)
(assert (>= x0c1 0))
(assert (<= x0c1 1))
(assert (= 1 (+ x0c0 x0c1)))
(declare-const x1c0 Int)
(assert (>= x1c0 0))
(assert (<= x1c0 1))
(declare-const x1c1 Int)
(assert (>= x1c1 0))
(assert (<= x1c1 1))
(assert (= 1 (+ x1c0 x1c1)))
(declare-const x2c0 Int)
(assert (>= x2c0 0))
(assert (<= x2c0 1))
(declare-const x2c1 Int)
(assert (>= x2c1 0))
(assert (<= x2c1 1))
(assert (= 1 (+ x2c0 x2c1)))
(declare-const x3c0 Int)
(assert (>= x3c0 0))
(assert (<= x3c0 1))
(declare-const x3c1 Int)
(assert (>= x3c1 0))
(assert (<= x3c1 1))
(assert (= 1 (+ x3c0 x3c1)))
(declare-const x4c0 Int)
(assert (>= x4c0 0))
(assert (<= x4c0 1))
(declare-const x4c1 Int)
(assert (>= x4c1 0))
(assert (<= x4c1 1))
(assert (= 1 (+ x4c0 x4c1)))
(declare-const x5c0 Int)
(assert (>= x5c0 0))
(assert (<= x5c0 1))
(declare-const x5c1 Int)
(assert (>= x5c1 0))
(assert (<= x5c1 1))
(assert (= 1 (+ x5c0 x5c1)))
(declare-const x6c0 Int)
(assert (>= x6c0 0))
(assert (<= x6c0 1))
(declare-const x6c1 Int)
(assert (>= x6c1 0))
(assert (<= x6c1 1))
(assert (= 1 (+ x6c0 x6c1)))
(declare-const x7c0 Int)
(assert (>= x7c0 0))
(assert (<= x7c0 1))
(declare-const x7c1 Int)
(assert (>= x7c1 0))
(assert (<= x7c1 1))
(assert (= 1 (+ x7c0 x7c1)))
(declare-const x8c0 Int)
(assert (>= x8c0 0))
(assert (<= x8c0 1))
(declare-const x8c1 Int)
(assert (>= x8c1 0))
(assert (<= x8c1 1))
(assert (= 1 (+ x8c0 x8c1)))
(declare-const x9c0 Int)
(assert (>= x9c0 0))
(assert (<= x9c0 1))
(declare-const x9c1 Int)
(assert (>= x9c1 0))
(assert (<= x9c1 1))
(assert (= 1 (+ x9c0 x9c1)))
(declare-const x10c0 Int)
(assert (>= x10c0 0))
(assert (<= x10c0 1))
(declare-const x10c1 Int)
(assert (>= x10c1 0))
(assert (<= x10c1 1))
(assert (= 1 (+ x10c0 x10c1)))
(declare-const x11c0 Int)
(assert (>= x11c0 0))
(assert (<= x11c0 1))
(declare-const x11c1 Int)
(assert (>= x11c1 0))
(assert (<= x11c1 1))
(assert (= 1 (+ x11c0 x11c1)))
(declare-const x12c0 Int)
(assert (>= x12c0 0))
(assert (<= x12c0 1))
(declare-const x12c1 Int)
(assert (>= x12c1 0))
(assert (<= x12c1 1))
(assert (= 1 (+ x12c0 x12c1)))
(declare-const x13c0 Int)
(assert (>= x13c0 0))
(assert (<= x13c0 1))
(declare-const x13c1 Int)
(assert (>= x13c1 0))
(assert (<= x13c1 1))
(assert (= 1 (+ x13c0 x13c1)))
(declare-const x14c0 Int)
(assert (>= x14c0 0))
(assert (<= x14c0 1))
(declare-const x14c1 Int)
(assert (>= x14c1 0))
(assert (<= x14c1 1))
(assert (= 1 (+ x14c0 x14c1)))
(declare-const x15c0 Int)
(assert (>= x15c0 0))
(assert (<= x15c0 1))
(declare-const x15c1 Int)
(assert (>= x15c1 0))
(assert (<= x15c1 1))
(assert (= 1 (+ x15c0 x15c1)))
(declare-const x16c0 Int)
(assert (>= x16c0 0))
(assert (<= x16c0 1))
(declare-const x16c1 Int)
(assert (>= x16c1 0))
(assert (<= x16c1 1))
(assert (= 1 (+ x16c0 x16c1)))
(assert (>= 2 (+ x2c0 x1c0 x0c0)))
(assert (>= 2 (+ x3c0 x2c0 x1c0)))
(assert (>= 3 (+ x3c1 x2c1 x1c1 x0c1)))
(assert (>= 2 (+ x4c0 x3c0 x2c0)))
(assert (>= 2 (+ x4c0 x2c0 x0c0)))
(assert (>= 3 (+ x4c1 x3c1 x2c1 x1c1)))
(assert (>= 2 (+ x5c0 x4c0 x3c0)))
(assert (>= 2 (+ x5c0 x3c0 x1c0)))
(assert (>= 3 (+ x5c1 x4c1 x3c1 x2c1)))
(assert (>= 2 (+ x6c0 x5c0 x4c0)))
(assert (>= 2 (+ x6c0 x4c0 x2c0)))
(assert (>= 2 (+ x6c0 x3c0 x0c0)))
(assert (>= 3 (+ x6c1 x5c1 x4c1 x3c1)))
(assert (>= 3 (+ x6c1 x4c1 x2c1 x0c1)))
(assert (>= 2 (+ x7c0 x6c0 x5c0)))
(assert (>= 2 (+ x7c0 x5c0 x3c0)))
(assert (>= 2 (+ x7c0 x4c0 x1c0)))
(assert (>= 3 (+ x7c1 x6c1 x5c1 x4c1)))
(assert (>= 3 (+ x7c1 x5c1 x3c1 x1c1)))
(assert (>= 2 (+ x8c0 x7c0 x6c0)))
(assert (>= 2 (+ x8c0 x6c0 x4c0)))
(assert (>= 2 (+ x8c0 x5c0 x2c0)))
(assert (>= 2 (+ x8c0 x4c0 x0c0)))
(assert (>= 3 (+ x8c1 x7c1 x6c1 x5c1)))
(assert (>= 3 (+ x8c1 x6c1 x4c1 x2c1)))
(assert (>= 2 (+ x9c0 x8c0 x7c0)))
(assert (>= 2 (+ x9c0 x7c0 x5c0)))
(assert (>= 2 (+ x9c0 x6c0 x3c0)))
(assert (>= 2 (+ x9c0 x5c0 x1c0)))
(assert (>= 3 (+ x9c1 x8c1 x7c1 x6c1)))
(assert (>= 3 (+ x9c1 x7c1 x5c1 x3c1)))
(assert (>= 3 (+ x9c1 x6c1 x3c1 x0c1)))
(assert (>= 2 (+ x10c0 x9c0 x8c0)))
(assert (>= 2 (+ x10c0 x8c0 x6c0)))
(assert (>= 2 (+ x10c0 x7c0 x4c0)))
(assert (>= 2 (+ x10c0 x6c0 x2c0)))
(assert (>= 2 (+ x10c0 x5c0 x0c0)))
(assert (>= 3 (+ x10c1 x9c1 x8c1 x7c1)))
(assert (>= 3 (+ x10c1 x8c1 x6c1 x4c1)))
(assert (>= 3 (+ x10c1 x7c1 x4c1 x1c1)))
(assert (>= 2 (+ x11c0 x10c0 x9c0)))
(assert (>= 2 (+ x11c0 x9c0 x7c0)))
(assert (>= 2 (+ x11c0 x8c0 x5c0)))
(assert (>= 2 (+ x11c0 x7c0 x3c0)))
(assert (>= 2 (+ x11c0 x6c0 x1c0)))
(assert (>= 3 (+ x11c1 x10c1 x9c1 x8c1)))
(assert (>= 3 (+ x11c1 x9c1 x7c1 x5c1)))
(assert (>= 3 (+ x11c1 x8c1 x5c1 x2c1)))
(assert (>= 2 (+ x12c0 x11c0 x10c0)))
(assert (>= 2 (+ x12c0 x10c0 x8c0)))
(assert (>= 2 (+ x12c0 x9c0 x6c0)))
(assert (>= 2 (+ x12c0 x8c0 x4c0)))
(assert (>= 2 (+ x12c0 x7c0 x2c0)))
(assert (>= 2 (+ x12c0 x6c0 x0c0)))
(assert (>= 3 (+ x12c1 x11c1 x10c1 x9c1)))
(assert (>= 3 (+ x12c1 x10c1 x8c1 x6c1)))
(assert (>= 3 (+ x12c1 x9c1 x6c1 x3c1)))
(assert (>= 3 (+ x12c1 x8c1 x4c1 x0c1)))
(assert (>= 2 (+ x13c0 x12c0 x11c0)))
(assert (>= 2 (+ x13c0 x11c0 x9c0)))
(assert (>= 2 (+ x13c0 x10c0 x7c0)))
(assert (>= 2 (+ x13c0 x9c0 x5c0)))
(assert (>= 2 (+ x13c0 x8c0 x3c0)))
(assert (>= 2 (+ x13c0 x7c0 x1c0)))
(assert (>= 3 (+ x13c1 x12c1 x11c1 x10c1)))
(assert (>= 3 (+ x13c1 x11c1 x9c1 x7c1)))
(assert (>= 3 (+ x13c1 x10c1 x7c1 x4c1)))
(assert (>= 3 (+ x13c1 x9c1 x5c1 x1c1)))
(assert (>= 2 (+ x14c0 x13c0 x12c0)))
(assert (>= 2 (+ x14c0 x12c0 x10c0)))
(assert (>= 2 (+ x14c0 x11c0 x8c0)))
(assert (>= 2 (+ x14c0 x10c0 x6c0)))
(assert (>= 2 (+ x14c0 x9c0 x4c0)))
(assert (>= 2 (+ x14c0 x8c0 x2c0)))
(assert (>= 2 (+ x14c0 x7c0 x0c0)))
(assert (>= 3 (+ x14c1 x13c1 x12c1 x11c1)))
(assert (>= 3 (+ x14c1 x12c1 x10c1 x8c1)))
(assert (>= 3 (+ x14c1 x11c1 x8c1 x5c1)))
(assert (>= 3 (+ x14c1 x10c1 x6c1 x2c1)))
(assert (>= 2 (+ x15c0 x14c0 x13c0)))
(assert (>= 2 (+ x15c0 x13c0 x11c0)))
(assert (>= 2 (+ x15c0 x12c0 x9c0)))
(assert (>= 2 (+ x15c0 x11c0 x7c0)))
(assert (>= 2 (+ x15c0 x10c0 x5c0)))
(assert (>= 2 (+ x15c0 x9c0 x3c0)))
(assert (>= 2 (+ x15c0 x8c0 x1c0)))
(assert (>= 3 (+ x15c1 x14c1 x13c1 x12c1)))
(assert (>= 3 (+ x15c1 x13c1 x11c1 x9c1)))
(assert (>= 3 (+ x15c1 x12c1 x9c1 x6c1)))
(assert (>= 3 (+ x15c1 x11c1 x7c1 x3c1)))
(assert (>= 3 (+ x15c1 x10c1 x5c1 x0c1)))
(assert (>= 2 (+ x16c0 x15c0 x14c0)))
(assert (>= 2 (+ x16c0 x14c0 x12c0)))
(assert (>= 2 (+ x16c0 x13c0 x10c0)))
(assert (>= 2 (+ x16c0 x12c0 x8c0)))
(assert (>= 2 (+ x16c0 x11c0 x6c0)))
(assert (>= 2 (+ x16c0 x10c0 x4c0)))
(assert (>= 2 (+ x16c0 x9c0 x2c0)))
(assert (>= 2 (+ x16c0 x8c0 x0c0)))
(assert (>= 3 (+ x16c1 x15c1 x14c1 x13c1)))
(assert (>= 3 (+ x16c1 x14c1 x12c1 x10c1)))
(assert (>= 3 (+ x16c1 x13c1 x10c1 x7c1)))
(assert (>= 3 (+ x16c1 x12c1 x8c1 x4c1)))
(assert (>= 3 (+ x16c1 x11c1 x6c1 x1c1)))
